60
1 0 6
2 0 9
2 1 6
3 0 3
3 1 1
3 2 6
4 0 5
4 1 12
4 2 2
4 3 11
5 0 3
5 1 5
5 2 8
5 3 10
5 4 2
6 0 12
6 1 1
6 2 5
6 3 2
6 4 6
6 5 9
7 0 11
7 1 3
7 2 8
7 3 1
7 4 2
7 5 10
7 6 12
8 0 11
8 1 3
8 2 10
8 3 2
8 4 1
8 5 11
8 6 4
8 7 3
9 0 5
9 1 5
9 2 3
9 3 2
9 4 1
9 5 10
9 6 5
9 7 6
9 8 9
10 0 2
10 1 3
10 2 2
10 3 4
10 4 2
10 5 3
10 6 11
10 7 3
10 8 8
10 9 5
11 0 6
11 1 1
11 2 7
11 3 1
11 4 3
11 5 2
11 6 12
11 7 3
11 8 11
11 9 1
11 10 6
12 0 5
12 1 2
12 2 6
12 3 9
12 4 5
12 5 12
12 6 8
12 7 12
12 8 1
12 9 9
12 10 2
12 11 5
13 0 9
13 1 8
13 2 2
13 3 4
13 4 11
13 5 2
13 6 7
13 7 9
13 8 8
13 9 8
13 10 12
13 11 9
13 12 1
14 0 12
14 1 10
14 2 3
14 3 10
14 4 10
14 5 11
14 6 12
14 7 1
14 8 12
14 9 8
14 10 6
14 11 7
14 12 6
14 13 7
15 0 9
15 1 12
15 2 5
15 3 3
15 4 8
15 5 5
15 6 9
15 7 4
15 8 9
15 9 3
15 10 10
15 11 3
15 12 5
15 13 6
15 14 1
16 0 9
16 1 7
16 2 8
16 3 6
16 4 8
16 5 11
16 6 12
16 7 4
16 8 8
16 9 12
16 10 8
16 11 2
16 12 9
16 13 5
16 14 3
16 15 2
17 0 12
17 1 6
17 2 5
17 3 9
17 4 11
17 5 1
17 6 5
17 7 10
17 8 8
17 9 5
17 10 10
17 11 10
17 12 1
17 13 10
17 14 5
17 15 11
17 16 12
18 0 10
18 1 11
18 2 5
18 3 8
18 4 10
18 5 4
18 6 4
18 7 1
18 8 12
18 9 3
18 10 10
18 11 7
18 12 7
18 13 6
18 14 4
18 15 2
18 16 1
18 17 7
19 0 1
19 1 5
19 2 2
19 3 7
19 4 7
19 5 10
19 6 11
19 7 11
19 8 9
19 9 8
19 10 3
19 11 9
19 12 5
19 13 6
19 14 10
19 15 7
19 16 1
19 17 9
19 18 5
20 0 9
20 1 6
20 2 7
20 3 3
20 4 8
20 5 3
20 6 6
20 7 3
20 8 10
20 9 6
20 10 7
20 11 12
20 12 1
20 13 4
20 14 5
20 15 5
20 16 8
20 17 5
20 18 3
20 19 1
21 0 12
21 1 5
21 2 9
21 3 5
21 4 3
21 5 11
21 6 8
21 7 6
21 8 5
21 9 12
21 10 11
21 11 5
21 12 12
21 13 9
21 14 10
21 15 10
21 16 4
21 17 4
21 18 10
21 19 3
21 20 2
22 0 3
22 1 7
22 2 2
22 3 1
22 4 9
22 5 8
22 6 4
22 7 2
22 8 11
22 9 10
22 10 11
22 11 2
22 12 1
22 13 9
22 14 1
22 15 9
22 16 5
22 17 12
22 18 1
22 19 7
22 20 1
22 21 4
23 0 2
23 1 12
23 2 9
23 3 1
23 4 7
23 5 4
23 6 12
23 7 1
23 8 3
23 9 1
23 10 10
23 11 11
23 12 1
23 13 2
23 14 10
23 15 2
23 16 2
23 17 7
23 18 5
23 19 2
23 20 8
23 21 5
23 22 11
24 0 9
24 1 4
24 2 2
24 3 11
24 4 4
24 5 3
24 6 12
24 7 4
24 8 8
24 9 3
24 10 6
24 11 10
24 12 6
24 13 8
24 14 1
24 15 8
24 16 5
24 17 12
24 18 10
24 19 3
24 20 8
24 21 2
24 22 2
24 23 2
25 0 11
25 1 12
25 2 6
25 3 11
25 4 3
25 5 5
25 6 1
25 7 7
25 8 9
25 9 11
25 10 5
25 11 2
25 12 4
25 13 10
25 14 12
25 15 10
25 16 6
25 17 7
25 18 1
25 19 3
25 20 11
25 21 10
25 22 3
25 23 2
25 24 2
26 0 6
26 1 5
26 2 4
26 3 12
26 4 5
26 5 12
26 6 3
26 7 11
26 8 9
26 9 6
26 10 3
26 11 7
26 12 3
26 13 7
26 14 5
26 15 11
26 16 10
26 17 2
26 18 4
26 19 9
26 20 9
26 21 6
26 22 8
26 23 11
26 24 12
26 25 11
27 0 9
27 1 7
27 2 3
27 3 1
27 4 1
27 5 1
27 6 2
27 7 5
27 8 5
27 9 7
27 10 6
27 11 11
27 12 8
27 13 10
27 14 8
27 15 1
27 16 6
27 17 9
27 18 1
27 19 3
27 20 11
27 21 2
27 22 7
27 23 9
27 24 4
27 25 2
27 26 2
28 0 4
28 1 9
28 2 11
28 3 7
28 4 12
28 5 7
28 6 5
28 7 4
28 8 6
28 9 1
28 10 11
28 11 6
28 12 9
28 13 3
28 14 11
28 15 9
28 16 12
28 17 9
28 18 4
28 19 9
28 20 7
28 21 5
28 22 8
28 23 5
28 24 2
28 25 1
28 26 8
28 27 9
29 0 6
29 1 5
29 2 2
29 3 2
29 4 1
29 5 11
29 6 4
29 7 3
29 8 6
29 9 4
29 10 8
29 11 8
29 12 12
29 13 5
29 14 7
29 15 7
29 16 9
29 17 11
29 18 7
29 19 7
29 20 3
29 21 9
29 22 6
29 23 1
29 24 2
29 25 2
29 26 3
29 27 9
29 28 4
30 0 1
30 1 11
30 2 2
30 3 10
30 4 1
30 5 6
30 6 5
30 7 11
30 8 8
30 9 1
30 10 11
30 11 6
30 12 12
30 13 9
30 14 10
30 15 8
30 16 2
30 17 10
30 18 1
30 19 1
30 20 1
30 21 1
30 22 12
30 23 8
30 24 4
30 25 2
30 26 4
30 27 2
30 28 1
30 29 5
31 0 8
31 1 3
31 2 3
31 3 4
31 4 6
31 5 2
31 6 3
31 7 3
31 8 9
31 9 5
31 10 12
31 11 8
31 12 11
31 13 10
31 14 10
31 15 5
31 16 8
31 17 8
31 18 9
31 19 6
31 20 1
31 21 6
31 22 4
31 23 8
31 24 12
31 25 9
31 26 11
31 27 7
31 28 4
31 29 1
31 30 7
32 0 11
32 1 7
32 2 4
32 3 12
32 4 10
32 5 7
32 6 10
32 7 11
32 8 3
32 9 6
32 10 11
32 11 6
32 12 5
32 13 8
32 14 12
32 15 12
32 16 6
32 17 7
32 18 10
32 19 7
32 20 11
32 21 3
32 22 10
32 23 4
32 24 2
32 25 1
32 26 9
32 27 3
32 28 4
32 29 10
32 30 4
32 31 4
33 0 7
33 1 1
33 2 12
33 3 5
33 4 10
33 5 12
33 6 10
33 7 12
33 8 3
33 9 5
33 10 7
33 11 3
33 12 2
33 13 11
33 14 5
33 15 1
33 16 9
33 17 1
33 18 9
33 19 9
33 20 6
33 21 3
33 22 2
33 23 1
33 24 4
33 25 3
33 26 6
33 27 7
33 28 4
33 29 11
33 30 1
33 31 12
33 32 6
34 0 12
34 1 7
34 2 10
34 3 12
34 4 11
34 5 12
34 6 8
34 7 1
34 8 1
34 9 5
34 10 6
34 11 1
34 12 12
34 13 9
34 14 3
34 15 11
34 16 3
34 17 8
34 18 4
34 19 9
34 20 3
34 21 12
34 22 2
34 23 2
34 24 12
34 25 2
34 26 4
34 27 10
34 28 4
34 29 4
34 30 11
34 31 11
34 32 6
34 33 3
35 0 1
35 1 7
35 2 6
35 3 7
35 4 8
35 5 12
35 6 2
35 7 1
35 8 11
35 9 2
35 10 5
35 11 4
35 12 7
35 13 8
35 14 10
35 15 2
35 16 1
35 17 1
35 18 4
35 19 1
35 20 1
35 21 2
35 22 3
35 23 5
35 24 3
35 25 9
35 26 11
35 27 7
35 28 5
35 29 1
35 30 7
35 31 8
35 32 9
35 33 10
35 34 2
36 0 7
36 1 8
36 2 1
36 3 11
36 4 7
36 5 3
36 6 2
36 7 4
36 8 8
36 9 1
36 10 12
36 11 12
36 12 5
36 13 4
36 14 1
36 15 8
36 16 8
36 17 1
36 18 1
36 19 11
36 20 12
36 21 11
36 22 5
36 23 11
36 24 1
36 25 6
36 26 1
36 27 5
36 28 6
36 29 11
36 30 1
36 31 11
36 32 3
36 33 2
36 34 9
36 35 6
37 0 9
37 1 1
37 2 6
37 3 8
37 4 8
37 5 4
37 6 2
37 7 6
37 8 9
37 9 12
37 10 10
37 11 5
37 12 7
37 13 3
37 14 2
37 15 5
37 16 12
37 17 3
37 18 12
37 19 6
37 20 6
37 21 10
37 22 1
37 23 11
37 24 7
37 25 3
37 26 9
37 27 3
37 28 2
37 29 11
37 30 1
37 31 4
37 32 4
37 33 3
37 34 5
37 35 10
37 36 4
38 0 4
38 1 4
38 2 4
38 3 9
38 4 5
38 5 4
38 6 5
38 7 3
38 8 9
38 9 6
38 10 11
38 11 5
38 12 10
38 13 5
38 14 5
38 15 11
38 16 6
38 17 7
38 18 1
38 19 4
38 20 9
38 21 2
38 22 10
38 23 3
38 24 4
38 25 3
38 26 12
38 27 10
38 28 4
38 29 4
38 30 1
38 31 10
38 32 9
38 33 7
38 34 10
38 35 3
38 36 2
38 37 1
39 0 4
39 1 8
39 2 8
39 3 4
39 4 12
39 5 5
39 6 2
39 7 2
39 8 7
39 9 5
39 10 11
39 11 2
39 12 2
39 13 4
39 14 7
39 15 6
39 16 6
39 17 4
39 18 5
39 19 11
39 20 9
39 21 6
39 22 8
39 23 6
39 24 7
39 25 1
39 26 7
39 27 1
39 28 5
39 29 12
39 30 2
39 31 3
39 32 6
39 33 9
39 34 2
39 35 11
39 36 6
39 37 9
39 38 4
40 0 9
40 1 7
40 2 9
40 3 2
40 4 9
40 5 5
40 6 9
40 7 4
40 8 7
40 9 1
40 10 6
40 11 2
40 12 9
40 13 10
40 14 1
40 15 2
40 16 1
40 17 3
40 18 4
40 19 1
40 20 4
40 21 6
40 22 9
40 23 6
40 24 3
40 25 9
40 26 2
40 27 9
40 28 5
40 29 7
40 30 5
40 31 3
40 32 10
40 33 2
40 34 3
40 35 2
40 36 9
40 37 5
40 38 6
40 39 7
41 0 11
41 1 9
41 2 8
41 3 11
41 4 7
41 5 2
41 6 11
41 7 6
41 8 10
41 9 10
41 10 1
41 11 7
41 12 11
41 13 8
41 14 11
41 15 3
41 16 1
41 17 4
41 18 4
41 19 12
41 20 5
41 21 9
41 22 8
41 23 2
41 24 9
41 25 3
41 26 8
41 27 4
41 28 10
41 29 2
41 30 10
41 31 10
41 32 8
41 33 3
41 34 7
41 35 2
41 36 1
41 37 4
41 38 7
41 39 9
41 40 5
42 0 10
42 1 1
42 2 9
42 3 10
42 4 2
42 5 1
42 6 4
42 7 8
42 8 12
42 9 11
42 10 10
42 11 9
42 12 6
42 13 8
42 14 11
42 15 12
42 16 10
42 17 4
42 18 11
42 19 3
42 20 1
42 21 9
42 22 7
42 23 3
42 24 3
42 25 11
42 26 4
42 27 12
42 28 7
42 29 3
42 30 4
42 31 9
42 32 11
42 33 2
42 34 2
42 35 6
42 36 1
42 37 11
42 38 10
42 39 5
42 40 7
42 41 6
43 0 11
43 1 2
43 2 4
43 3 10
43 4 8
43 5 7
43 6 11
43 7 9
43 8 1
43 9 12
43 10 8
43 11 3
43 12 3
43 13 6
43 14 3
43 15 9
43 16 12
43 17 6
43 18 5
43 19 11
43 20 12
43 21 6
43 22 8
43 23 1
43 24 2
43 25 9
43 26 3
43 27 3
43 28 4
43 29 7
43 30 4
43 31 7
43 32 10
43 33 6
43 34 7
43 35 3
43 36 8
43 37 4
43 38 6
43 39 8
43 40 2
43 41 8
43 42 9
44 0 1
44 1 9
44 2 7
44 3 2
44 4 11
44 5 5
44 6 11
44 7 10
44 8 1
44 9 9
44 10 4
44 11 7
44 12 9
44 13 12
44 14 9
44 15 1
44 16 11
44 17 2
44 18 6
44 19 2
44 20 3
44 21 11
44 22 7
44 23 7
44 24 1
44 25 6
44 26 7
44 27 2
44 28 10
44 29 11
44 30 3
44 31 12
44 32 9
44 33 10
44 34 10
44 35 7
44 36 8
44 37 5
44 38 9
44 39 12
44 40 11
44 41 8
44 42 7
44 43 10
45 0 7
45 1 10
45 2 10
45 3 6
45 4 4
45 5 6
45 6 2
45 7 6
45 8 6
45 9 4
45 10 9
45 11 4
45 12 12
45 13 10
45 14 2
45 15 5
45 16 5
45 17 11
45 18 3
45 19 2
45 20 11
45 21 9
45 22 6
45 23 6
45 24 9
45 25 10
45 26 5
45 27 5
45 28 11
45 29 8
45 30 5
45 31 4
45 32 2
45 33 2
45 34 6
45 35 8
45 36 2
45 37 7
45 38 9
45 39 4
45 40 9
45 41 9
45 42 4
45 43 3
45 44 5
46 0 1
46 1 2
46 2 3
46 3 1
46 4 4
46 5 6
46 6 10
46 7 5
46 8 12
46 9 12
46 10 4
46 11 10
46 12 10
46 13 2
46 14 7
46 15 12
46 16 12
46 17 5
46 18 4
46 19 2
46 20 2
46 21 12
46 22 3
46 23 5
46 24 3
46 25 8
46 26 5
46 27 1
46 28 6
46 29 1
46 30 8
46 31 4
46 32 8
46 33 3
46 34 4
46 35 7
46 36 10
46 37 10
46 38 5
46 39 10
46 40 9
46 41 7
46 42 7
46 43 4
46 44 12
46 45 3
47 0 11
47 1 3
47 2 4
47 3 9
47 4 1
47 5 4
47 6 6
47 7 11
47 8 12
47 9 9
47 10 9
47 11 3
47 12 4
47 13 9
47 14 1
47 15 5
47 16 12
47 17 1
47 18 11
47 19 10
47 20 7
47 21 3
47 22 5
47 23 6
47 24 10
47 25 6
47 26 2
47 27 4
47 28 12
47 29 2
47 30 7
47 31 7
47 32 10
47 33 12
47 34 3
47 35 12
47 36 7
47 37 5
47 38 12
47 39 4
47 40 12
47 41 5
47 42 5
47 43 1
47 44 4
47 45 5
47 46 6
48 0 12
48 1 3
48 2 5
48 3 9
48 4 11
48 5 4
48 6 5
48 7 5
48 8 5
48 9 8
48 10 8
48 11 9
48 12 9
48 13 6
48 14 10
48 15 10
48 16 6
48 17 6
48 18 5
48 19 11
48 20 12
48 21 9
48 22 12
48 23 12
48 24 1
48 25 12
48 26 2
48 27 9
48 28 5
48 29 1
48 30 12
48 31 11
48 32 1
48 33 7
48 34 4
48 35 6
48 36 1
48 37 3
48 38 5
48 39 5
48 40 10
48 41 1
48 42 11
48 43 11
48 44 5
48 45 10
48 46 3
48 47 2
49 0 3
49 1 10
49 2 11
49 3 3
49 4 8
49 5 12
49 6 5
49 7 9
49 8 10
49 9 1
49 10 9
49 11 1
49 12 6
49 13 9
49 14 7
49 15 8
49 16 9
49 17 3
49 18 1
49 19 2
49 20 2
49 21 12
49 22 7
49 23 12
49 24 6
49 25 5
49 26 8
49 27 3
49 28 1
49 29 7
49 30 7
49 31 4
49 32 1
49 33 4
49 34 7
49 35 3
49 36 4
49 37 8
49 38 7
49 39 9
49 40 7
49 41 11
49 42 5
49 43 1
49 44 1
49 45 7
49 46 12
49 47 1
49 48 7
50 0 10
50 1 10
50 2 4
50 3 6
50 4 5
50 5 4
50 6 10
50 7 2
50 8 6
50 9 4
50 10 12
50 11 12
50 12 2
50 13 3
50 14 10
50 15 12
50 16 1
50 17 5
50 18 8
50 19 1
50 20 2
50 21 2
50 22 3
50 23 11
50 24 12
50 25 4
50 26 10
50 27 10
50 28 5
50 29 4
50 30 7
50 31 2
50 32 6
50 33 9
50 34 6
50 35 5
50 36 2
50 37 6
50 38 8
50 39 11
50 40 2
50 41 2
50 42 4
50 43 9
50 44 11
50 45 10
50 46 3
50 47 10
50 48 5
50 49 11
51 0 2
51 1 1
51 2 9
51 3 2
51 4 9
51 5 8
51 6 5
51 7 12
51 8 5
51 9 7
51 10 12
51 11 3
51 12 3
51 13 11
51 14 8
51 15 1
51 16 8
51 17 9
51 18 12
51 19 12
51 20 9
51 21 10
51 22 8
51 23 3
51 24 1
51 25 2
51 26 5
51 27 11
51 28 9
51 29 1
51 30 3
51 31 6
51 32 9
51 33 3
51 34 9
51 35 2
51 36 2
51 37 11
51 38 11
51 39 6
51 40 5
51 41 12
51 42 4
51 43 5
51 44 12
51 45 1
51 46 4
51 47 7
51 48 11
51 49 11
51 50 2
52 0 10
52 1 4
52 2 11
52 3 11
52 4 12
52 5 9
52 6 2
52 7 10
52 8 1
52 9 6
52 10 9
52 11 6
52 12 7
52 13 7
52 14 3
52 15 10
52 16 9
52 17 3
52 18 1
52 19 9
52 20 1
52 21 2
52 22 9
52 23 12
52 24 11
52 25 5
52 26 10
52 27 2
52 28 11
52 29 4
52 30 7
52 31 10
52 32 1
52 33 3
52 34 1
52 35 12
52 36 10
52 37 3
52 38 11
52 39 12
52 40 8
52 41 1
52 42 4
52 43 4
52 44 7
52 45 9
52 46 4
52 47 8
52 48 12
52 49 4
52 50 5
52 51 3
53 0 5
53 1 2
53 2 11
53 3 10
53 4 5
53 5 9
53 6 11
53 7 7
53 8 4
53 9 10
53 10 1
53 11 7
53 12 9
53 13 9
53 14 1
53 15 8
53 16 3
53 17 11
53 18 1
53 19 8
53 20 10
53 21 9
53 22 10
53 23 1
53 24 7
53 25 1
53 26 6
53 27 1
53 28 10
53 29 4
53 30 5
53 31 5
53 32 3
53 33 7
53 34 8
53 35 4
53 36 2
53 37 7
53 38 8
53 39 5
53 40 6
53 41 4
53 42 9
53 43 8
53 44 6
53 45 9
53 46 2
53 47 5
53 48 3
53 49 5
53 50 8
53 51 1
53 52 5
54 0 12
54 1 2
54 2 11
54 3 4
54 4 5
54 5 12
54 6 11
54 7 5
54 8 6
54 9 2
54 10 3
54 11 5
54 12 7
54 13 4
54 14 5
54 15 9
54 16 12
54 17 11
54 18 11
54 19 6
54 20 5
54 21 4
54 22 8
54 23 11
54 24 5
54 25 5
54 26 7
54 27 1
54 28 8
54 29 2
54 30 7
54 31 9
54 32 9
54 33 11
54 34 10
54 35 7
54 36 2
54 37 7
54 38 8
54 39 8
54 40 4
54 41 9
54 42 8
54 43 9
54 44 10
54 45 1
54 46 12
54 47 10
54 48 3
54 49 11
54 50 8
54 51 10
54 52 5
54 53 2
55 0 3
55 1 12
55 2 2
55 3 2
55 4 10
55 5 4
55 6 9
55 7 11
55 8 6
55 9 9
55 10 4
55 11 4
55 12 8
55 13 2
55 14 4
55 15 2
55 16 8
55 17 7
55 18 9
55 19 9
55 20 11
55 21 10
55 22 8
55 23 1
55 24 2
55 25 7
55 26 11
55 27 1
55 28 4
55 29 1
55 30 1
55 31 3
55 32 9
55 33 6
55 34 8
55 35 4
55 36 3
55 37 3
55 38 8
55 39 6
55 40 1
55 41 7
55 42 11
55 43 12
55 44 10
55 45 8
55 46 7
55 47 11
55 48 12
55 49 6
55 50 7
55 51 9
55 52 12
55 53 2
55 54 11
56 0 12
56 1 6
56 2 10
56 3 8
56 4 3
56 5 12
56 6 3
56 7 9
56 8 10
56 9 2
56 10 4
56 11 7
56 12 11
56 13 6
56 14 7
56 15 6
56 16 6
56 17 4
56 18 10
56 19 12
56 20 2
56 21 7
56 22 8
56 23 10
56 24 12
56 25 2
56 26 9
56 27 10
56 28 4
56 29 7
56 30 12
56 31 10
56 32 8
56 33 10
56 34 12
56 35 12
56 36 2
56 37 7
56 38 12
56 39 1
56 40 4
56 41 9
56 42 1
56 43 7
56 44 5
56 45 3
56 46 7
56 47 2
56 48 4
56 49 3
56 50 2
56 51 12
56 52 1
56 53 4
56 54 4
56 55 6
57 0 9
57 1 5
57 2 11
57 3 4
57 4 11
57 5 4
57 6 11
57 7 9
57 8 1
57 9 4
57 10 9
57 11 7
57 12 8
57 13 12
57 14 3
57 15 12
57 16 7
57 17 8
57 18 3
57 19 3
57 20 3
57 21 8
57 22 6
57 23 2
57 24 2
57 25 5
57 26 5
57 27 12
57 28 6
57 29 1
57 30 9
57 31 12
57 32 2
57 33 12
57 34 5
57 35 11
57 36 11
57 37 4
57 38 3
57 39 7
57 40 11
57 41 2
57 42 12
57 43 10
57 44 7
57 45 12
57 46 7
57 47 8
57 48 4
57 49 11
57 50 9
57 51 1
57 52 12
57 53 7
57 54 2
57 55 10
57 56 12
58 0 8
58 1 5
58 2 1
58 3 1
58 4 2
58 5 4
58 6 1
58 7 2
58 8 9
58 9 6
58 10 12
58 11 2
58 12 3
58 13 7
58 14 12
58 15 2
58 16 6
58 17 2
58 18 10
58 19 6
58 20 12
58 21 6
58 22 3
58 23 7
58 24 3
58 25 5
58 26 12
58 27 11
58 28 2
58 29 3
58 30 1
58 31 3
58 32 10
58 33 11
58 34 12
58 35 8
58 36 12
58 37 1
58 38 6
58 39 5
58 40 8
58 41 3
58 42 10
58 43 7
58 44 2
58 45 1
58 46 1
58 47 4
58 48 6
58 49 5
58 50 3
58 51 8
58 52 3
58 53 11
58 54 1
58 55 11
58 56 12
58 57 2
59 0 11
59 1 5
59 2 3
59 3 8
59 4 3
59 5 12
59 6 8
59 7 5
59 8 12
59 9 11
59 10 2
59 11 2
59 12 12
59 13 2
59 14 8
59 15 5
59 16 2
59 17 2
59 18 7
59 19 8
59 20 5
59 21 9
59 22 1
59 23 3
59 24 5
59 25 2
59 26 6
59 27 8
59 28 3
59 29 12
59 30 1
59 31 7
59 32 10
59 33 5
59 34 6
59 35 11
59 36 12
59 37 9
59 38 5
59 39 3
59 40 9
59 41 7
59 42 4
59 43 4
59 44 1
59 45 12
59 46 10
59 47 3
59 48 1
59 49 9
59 50 2
59 51 10
59 52 9
59 53 4
59 54 12
59 55 10
59 56 2
59 57 4
59 58 11
